p cnf 21 10
e 1 0
a 2 0
e 3 4 0
a 5 6 0
e 7 8 9 0
a 10 0
e 11 0
a 12 13 0
e 14 0
a 15 16 17 18 0
e 19 20 21 0
5 -9 19 16 0
-8 7 6 0
3 15 5 -11 8 0
-3 -6 16 7 0
-3 10 21 0
15 4 11 0
-9 21 -10 16 0
-3 18 8 12 4 0
14 5 1 0
2 13 -19 -9 -7 0
